100 2 100
39 12 2 19 63 89 19 98 58 71 31 97 30 16 34 95 60 57 59 1 44 99 31 43 59 30 46 87 88 86 47 79 98 49 98 61 90 17 12 48 89 95 46 71 12 32 66 72 90 25 25 86 24 56 30 35 38 76 74 78 14 73 57 12 75 55 25 65 73 37 66 14 33 64 85 45 48 3 69 90 80 46 77 57 2 59 92 92 35 19 71 1 92 28 13 67 36 38 85 61 
